NAME: GRASP_42_0
TYPE: TSP
COMMENT: line_42_0
DIMENSION: 42
EDGE_WEIGHT_TYPE: EUC_2D
NODE_COORD_SECTION
1 4877 1254
2 2496 1104
3 4205 4091
4 250 308
5 4951 1523
6 4101 3225
7 4757 2207
8 3363 3631
9 508 3589
10 2159 348
11 3520 4497
12 751 228
13 2932 2902
14 2265 865
15 4883 4810
16 4639 729
17 4719 2481
18 3258 4784
19 1711 1614
20 3871 2275
21 4195 3224
22 731 4908
23 3744 1621
24 4595 428
25 4356 2795
26 676 209
27 1594 2614
28 2509 2612
29 1128 1022
30 3996 2022
31 2735 4852
32 3823 2669
33 1357 1773
34 2563 2137
35 3371 1036
36 757 961
37 4628 1074
38 3757 3624
39 715 3044
40 1965 2908
41 3890 1980
42 4605 95
